nNurses = 103;
nHours = 27;
minHours = 6;
maxHours = 8;
maxConsec = 6;
maxPresence = 13;
demand = [21, 26, 28, 31, 28, 24, 19, 23, 28, 30, 30, 26, 21, 18, 23, 26, 25, 26, 30, 28, 29, 29, 27, 31, 29, 27, 29];
